c Output_time 26.03.2020 18:13:21_+0100 1585242801320707470
c ** Program information **
c program_name                          "QBRG_debug"
c version                               "0.3.20"
c date                                  "25.3.2020"
c gid_id                                "673970833836058123f633335630c185360d632e"
c author                                "Oliver Kullmann"
c url                                   "https://github.com/OKullmann/oklibrary/blob/master/Satisfiability/Transformers/Generators/Random/QBRG.cpp"
c ** Machine information **
c machine_name                          "chyna-Lenovo-G50-70"
c bogomips                              3791.08
c ** Compilation information **
c compiler_version                      "g++ 7.5.0"
c compilation_date                      "Mar_26_2020 11:16:30"
c compilation_options                   "--std=c++17 -pedantic -fmax-errors=5 -Wall -Wextra -g -D_GLIBCXX_DEBUG"
c NDEBUG                                0
c OPTIMIZE                              0
c ** Parameters **
c command-line                          "./QBRG_debug" "e40 a40 40" "432*1,1|2-2,1|3-3,1" "" "1,t" ""
c output                                "QuBlRaGe_120_432_1585242801320552609.qdimacs"
c options                               "filtered,renamed"
c num_quantifier_blocks                 3
c  quantifier_blocks                    1:e1-40 2:a41-80 3:e81-120
c num_clause-blocks                     1
c  clause-blocks                        432 * {1-40,1,1/2} | {41-80,1,1/2} | {81-120,1,1/2}
c num_e-seeds                           30+2=32
c  e-seeds                              1 0 1 0 4 120 2 40 1 40 0 40 1 432 3 1 1 1 1 2 2 2 1 1 2 3 3 1 1 2 1 1585242801320551899
p cnf 120 432
e 1 2 3 4 5 6 7 8 9 10 11 12 13 14 15 16 17 18 19 20 21 22 23 24 25 26 27 28 29 30 31 32 33 34 35 36 37 38 39 40 0
a 41 42 43 44 45 46 47 48 49 50 51 52 53 54 55 56 57 58 59 60 61 62 63 64 65 66 67 68 69 70 71 72 73 74 75 76 77 78 79 80 0
e 81 82 83 84 85 86 87 88 89 90 91 92 93 94 95 96 97 98 99 100 101 102 103 104 105 106 107 108 109 110 111 112 113 114 115 116 117 118 119 120 0
7 44 -81 0
-36 49 -81 0
40 -52 -81 0
32 71 -81 0
-31 79 -81 0
22 -47 81 0
2 48 81 0
28 51 81 0
-32 -59 81 0
32 -61 81 0
22 64 81 0
-2 47 -82 0
14 -56 -82 0
36 63 -82 0
-31 77 -82 0
-32 47 82 0
19 -51 82 0
-28 62 82 0
-16 -42 -83 0
-19 45 -83 0
-32 53 -83 0
-9 61 -83 0
-27 67 -83 0
-24 44 83 0
-6 69 83 0
-1 -80 83 0
-32 41 -84 0
4 -52 -84 0
34 -52 -84 0
-17 54 -84 0
2 64 -84 0
8 65 -84 0
-13 -47 84 0
15 47 84 0
-4 52 84 0
-37 68 84 0
-4 73 84 0
38 -77 84 0
15 -42 -85 0
-23 48 -85 0
14 -49 -85 0
38 -54 -85 0
10 68 -85 0
-19 76 -85 0
40 47 85 0
-9 49 85 0
4 42 -86 0
-7 44 -86 0
18 -47 -86 0
-32 -76 -86 0
34 -41 86 0
-6 -42 86 0
19 -52 86 0
-35 -68 86 0
-36 69 86 0
-1 -77 86 0
27 -41 -87 0
-26 44 -87 0
34 -56 -87 0
-5 57 -87 0
-32 -66 -87 0
-12 -48 87 0
-3 52 87 0
-37 -58 87 0
-14 58 87 0
29 62 87 0
31 -63 87 0
32 -65 87 0
-30 66 87 0
12 -71 87 0
-23 44 -88 0
28 47 -88 0
10 -50 -88 0
-22 57 -88 0
19 61 -88 0
10 -66 -88 0
20 71 -88 0
2 47 88 0
31 -54 88 0
-19 58 88 0
-39 75 88 0
16 -58 -89 0
-7 -62 -89 0
-5 -70 -89 0
-24 -72 -89 0
-11 47 89 0
24 -63 89 0
20 67 89 0
2 75 89 0
-39 -77 89 0
4 77 89 0
-35 -45 -90 0
34 -58 -90 0
-33 -49 90 0
18 63 90 0
22 -67 90 0
-13 -70 90 0
-19 -73 90 0
21 -73 90 0
-33 -77 90 0
28 -80 90 0
17 41 -91 0
-17 -47 -91 0
-10 49 -91 0
29 -54 -91 0
-38 -66 -91 0
-34 79 -91 0
-17 -41 91 0
29 45 91 0
-26 46 91 0
-7 50 91 0
-12 59 91 0
-2 60 91 0
-11 60 91 0
-16 -63 91 0
-23 66 91 0
37 66 91 0
-4 68 91 0
-22 69 91 0
1 -70 91 0
10 80 91 0
-28 49 -92 0
14 55 -92 0
-31 -57 -92 0
28 57 -92 0
36 57 -92 0
-18 -69 -92 0
-7 48 92 0
31 55 92 0
-23 58 92 0
29 58 92 0
-26 64 92 0
-17 79 92 0
-38 -47 -93 0
-10 -59 -93 0
-11 -72 -93 0
28 -74 -93 0
-8 43 93 0
-27 60 93 0
4 68 93 0
11 70 93 0
-10 -72 93 0
-3 -77 93 0
14 46 -94 0
-11 66 -94 0
-12 -67 -94 0
-25 -77 -94 0
-9 -42 94 0
-11 43 94 0
26 -55 94 0
23 63 94 0
29 -64 94 0
-27 -72 94 0
5 74 94 0
35 77 94 0
-33 79 94 0
25 80 94 0
-31 43 -95 0
-5 46 -95 0
-19 50 -95 0
-33 -55 -95 0
19 -58 -95 0
17 -59 -95 0
-13 65 -95 0
10 -72 -95 0
-6 -76 -95 0
14 75 95 0
-27 75 95 0
-10 78 95 0
7 -45 -96 0
16 -56 -96 0
35 -59 -96 0
-2 41 96 0
10 -55 96 0
-17 56 96 0
11 80 96 0
21 -43 -97 0
17 -44 -97 0
16 -48 -97 0
-29 49 -97 0
-32 -60 -97 0
-3 48 97 0
4 -51 97 0
-11 70 97 0
-33 -80 97 0
39 -43 -98 0
-38 -55 -98 0
-26 -70 -98 0
-25 -71 -98 0
-12 -72 -98 0
-15 -77 -98 0
10 -50 98 0
-5 57 98 0
-5 -72 98 0
1 -45 -99 0
-9 62 -99 0
-37 77 -99 0
19 -80 -99 0
-15 60 99 0
-21 60 99 0
-37 64 99 0
15 -71 99 0
17 44 -100 0
-34 -47 -100 0
-24 -49 -100 0
-8 -51 -100 0
3 56 -100 0
9 -61 -100 0
-27 -73 -100 0
-18 -41 100 0
-3 -48 100 0
16 -50 100 0
27 -50 100 0
-17 -54 100 0
37 -68 100 0
-10 74 100 0
-17 -79 100 0
8 56 -101 0
-30 -71 -101 0
12 -74 -101 0
21 -42 101 0
-33 -49 101 0
27 -52 101 0
3 -63 101 0
-21 64 101 0
-34 -73 101 0
-7 -41 -102 0
-34 63 -102 0
-27 -65 -102 0
-6 68 -102 0
35 69 -102 0
29 46 102 0
38 -48 102 0
-30 -50 102 0
3 50 102 0
8 -59 102 0
-31 67 102 0
3 75 102 0
-27 -44 -103 0
37 51 -103 0
-28 52 -103 0
-15 53 -103 0
33 -58 -103 0
-15 -73 -103 0
-2 43 103 0
-23 54 103 0
-33 55 103 0
37 -62 103 0
-21 62 103 0
-19 -71 103 0
19 -43 -104 0
-38 48 -104 0
-30 -51 -104 0
22 68 -104 0
4 -70 -104 0
24 74 -104 0
27 80 -104 0
11 71 104 0
-16 73 104 0
-30 76 104 0
32 54 -105 0
18 60 -105 0
28 -71 -105 0
10 -74 -105 0
28 76 -105 0
-40 76 -105 0
-26 -48 105 0
-33 54 105 0
-3 65 105 0
13 70 105 0
-18 -74 105 0
19 -77 105 0
27 -42 -106 0
3 51 -106 0
39 -57 -106 0
-24 70 -106 0
10 72 -106 0
15 -42 106 0
30 -46 106 0
-2 66 106 0
15 -68 106 0
-35 -77 106 0
-33 48 -107 0
-26 -54 -107 0
8 -58 -107 0
-37 -76 -107 0
-14 -45 107 0
30 55 107 0
-1 -56 107 0
18 -67 107 0
-40 -68 107 0
28 -69 107 0
-34 -71 107 0
2 -79 107 0
4 45 -108 0
-11 62 -108 0
19 55 108 0
-29 -58 108 0
-2 -60 108 0
2 64 108 0
26 -76 108 0
-20 65 -109 0
-29 -68 -109 0
-37 74 -109 0
9 -55 109 0
-23 76 109 0
-2 -80 109 0
-10 -57 -110 0
-32 -65 -110 0
-22 -80 -110 0
30 -80 -110 0
-4 -61 110 0
16 44 -111 0
35 44 -111 0
34 -45 -111 0
-16 45 -111 0
28 -65 -111 0
25 65 -111 0
36 -70 -111 0
25 -45 111 0
-16 46 111 0
10 47 111 0
-28 -56 111 0
35 57 111 0
3 -66 111 0
-39 74 111 0
-3 -77 111 0
-22 -77 111 0
10 80 111 0
38 50 -112 0
-10 61 -112 0
17 61 -112 0
-11 -62 -112 0
25 70 -112 0
-25 43 112 0
37 -44 112 0
-5 48 112 0
-40 -55 112 0
16 57 112 0
-40 -60 112 0
26 65 112 0
2 44 -113 0
-23 -56 -113 0
16 -61 -113 0
-29 69 -113 0
-13 73 -113 0
-10 -74 -113 0
-27 -80 -113 0
35 -56 113 0
-11 -58 113 0
-38 64 113 0
11 -66 113 0
-10 70 113 0
10 -74 113 0
1 74 113 0
27 58 -114 0
2 70 -114 0
33 78 -114 0
-23 43 114 0
-24 60 114 0
-28 -62 114 0
33 72 114 0
-25 80 114 0
34 46 -115 0
-12 50 -115 0
-37 -53 -115 0
-23 55 -115 0
35 -56 -115 0
-14 58 -115 0
18 -63 -115 0
-10 64 -115 0
10 56 115 0
-39 -62 115 0
40 62 115 0
2 -78 115 0
-9 79 115 0
11 -42 -116 0
7 46 -116 0
30 -66 -116 0
-25 -73 -116 0
-28 -75 -116 0
24 -79 -116 0
21 -80 -116 0
36 46 116 0
38 51 116 0
-15 -56 116 0
17 -60 116 0
14 -62 116 0
-34 -66 116 0
15 77 116 0
36 43 -117 0
26 -45 -117 0
-39 58 -117 0
2 -63 -117 0
35 -67 -117 0
1 75 -117 0
35 41 117 0
-17 -43 117 0
-31 47 117 0
-21 -57 117 0
2 59 117 0
4 -67 117 0
-10 -45 -118 0
-34 -50 -118 0
-33 50 -118 0
28 -55 -118 0
27 74 -118 0
-13 -42 118 0
-38 58 118 0
11 -79 118 0
-4 53 -119 0
-1 -55 -119 0
-3 -69 -119 0
26 -70 -119 0
31 45 119 0
-39 59 119 0
-28 -70 119 0
3 -74 119 0
2 50 -120 0
-7 50 -120 0
13 55 -120 0
10 63 -120 0
-38 -69 -120 0
-8 74 -120 0
-39 76 -120 0
24 -44 120 0
26 -46 120 0
-36 59 120 0
18 -68 120 0
36 -70 120 0
-11 73 120 0
17 -79 120 0
